g3 0 1 0	# problem ex5_3_2
 22 16 1 0 16	# vars, constraints, objectives, ranges, eqns
 9 0	# nonlinear constraints, objectives
 0 0	# network constraints: nonlinear, linear
 10 0 0	# nonlinear vars in constraints, objectives, both
 0 0 0 1	# linear network variables; functions; arith, flags
 0 0 0 0 0	# discrete variables: binary, integer, nonlinear (b,c,o)
 59 4	# nonzeros in Jacobian, gradients
 0 0	# max name lengths: constraints, variables
 0 0 0 0 0	# common exprs: b,c,o,c1,o1
b
0 0 300
0 0 300
0 0 300
0 0 300
0 0 300
0 0 300
0 0 1
0 0 1
0 0 1
0 0 1
0 0 300
0 0 300
0 0 300
0 0 300
0 0 300
0 0 300
0 0 300
0 0 300
0 0 300
0 0 300
0 0 300
0 0 300
r
4 0
4 0
4 0
4 0
4 0
4 0
4 30
4 50
4 30
4 300
4 0
4 0
4 0
4 0
4 1
4 1
C0
o2
v4
v8
C1
o1
o2
v4
v9
o2
v0
v7
C2
o16
o2
v0
v6
C3
o16
o2
v3
v8
C4
o1
o2
v1
v7
o2
v3
v9
C5
o2
v1
v6
C6
o2
v5
v8
C7
o0
o2
v2
v7
o2
v5
v9
C8
o2
v2
v6
C9
n0
C10
n0
C11
n0
C12
n0
C13
n0
C14
n0
C15
n0
O0 0
n0.9979
k21
3
6
9
12
15
18
22
26
30
34
38
42
46
47
49
51
52
53
54
56
58
J0 4
4 0
8 0
10 0.333
14 -1
J1 5
0 0
4 0
7 0
9 0
10 0.333
J2 3
0 0
6 0
10 0.333
J3 3
3 0
8 0
11 -0.333
J4 5
1 0
3 0
7 0
9 0
11 0.333
J5 4
1 0
6 0
11 0.333
19 -1
J6 4
5 0
8 0
12 0.333
15 1
J7 5
2 0
5 0
7 0
9 0
12 0.333
J8 4
2 0
6 0
12 0.333
20 1
J9 4
10 1
11 1
12 1
13 1
J10 3
14 1
15 -1
16 -1
J11 4
0 1
1 -1
2 -1
17 -1
J12 4
3 1
4 -1
5 -1
18 -1
J13 3
19 1
20 -1
21 -1
J14 2
6 1
7 1
J15 2
8 1
9 1
G0 4
1 0.01517
4 0.00432
10 0.00432
11 0.01517
